(set-option :incremental false)
(set-logic ALL)
(declare-sort $$unsorted 0)
(declare-fun in ($$unsorted $$unsorted) Bool)
(declare-fun emptyset_tptp () $$unsorted)
(declare-fun setadjoin ($$unsorted $$unsorted) $$unsorted)
(declare-fun dsetconstr ($$unsorted (-> $$unsorted Bool)) $$unsorted)
(declare-fun dsetconstrI () Bool)
(assert (= dsetconstrI (forall ((A $$unsorted) (Xphi (-> $$unsorted Bool)) (Xx $$unsorted)) (=> (in Xx A) (=> (Xphi Xx) (in Xx (dsetconstr A (lambda ((Xy $$unsorted)) (Xphi Xy)))))) )))
(declare-fun uniqinunit () Bool)
(assert (= uniqinunit (forall ((Xx $$unsorted) (Xy $$unsorted)) (=> (in Xx (setadjoin Xy emptyset_tptp)) (= Xx Xy)) )))
(declare-fun singleton_tptp ($$unsorted) Bool)
(assert (= singleton_tptp (lambda ((A $$unsorted)) (exists ((Xx $$unsorted)) (and (in Xx A) (= A (setadjoin Xx emptyset_tptp))) ))))
(declare-fun ex1 ($$unsorted (-> $$unsorted Bool)) Bool)
(assert (= ex1 (lambda ((A $$unsorted) (Xphi (-> $$unsorted Bool))) (singleton_tptp (dsetconstr A (lambda ((Xx $$unsorted)) (Xphi Xx)))))))
(assert (not (=> dsetconstrI (=> uniqinunit (forall ((A $$unsorted) (Xphi (-> $$unsorted Bool))) (=> (ex1 A (lambda ((Xx $$unsorted)) (Xphi Xx))) (forall ((Xx $$unsorted)) (=> (in Xx A) (forall ((Xy $$unsorted)) (=> (in Xy A) (=> (Xphi Xx) (=> (Xphi Xy) (= Xx Xy)))) )) )) )))))
(meta-info :filename "SEU683^2")
(check-sat-assuming ( (not false) ))
